words_hard_train/4731.qaiger
aag 24 10 0 1 14
2
4
8
12
16
20
26
28
32
36
49
6 3 5
10 6 9
14 11 12
18 17 13
22 19 20
24 15 23
30 27 29
34 30 32
38 34 37
40 9 13
42 41 16
44 43 21
46 38 45
48 24 46
i0 1 x1[5]
i1 1 x1[6]
i2 1 x1[4]
i3 2 y2[7]
i4 2 y2[6]
i5 1 x1[3]
i6 2 y2[4]
i7 2 y2[3]
i8 2 y2[5]
i9 2 y2[2]
o0 bool[0]
c
simplified
  !=
    >> 2
      2 y2
    xor
      1 x1
      subtract
        1 x1
        8
