words_hard_train/4731.qaiger.qdimacs
p cnf 24 43
a 1 2 10 4 0
e 3 5 6 7 8 9 11 12 13 14 15 16 17 18 19 20 21 22 23 24 0
1 2 3 0
-1 -3 0
-2 -3 0
-3 4 5 0
3 -5 0
-4 -5 0
5 -6 7 0
-5 -7 0
6 -7 0
8 6 9 0
-8 -9 0
-6 -9 0
9 -10 11 0
-9 -11 0
10 -11 0
7 11 12 0
-7 -12 0
-11 -12 0
13 14 15 0
-13 -15 0
-14 -15 0
-15 -16 17 0
15 -17 0
16 -17 0
-17 18 19 0
17 -19 0
-18 -19 0
4 6 20 0
-4 -20 0
-6 -20 0
20 -8 21 0
-20 -21 0
8 -21 0
21 10 22 0
-21 -22 0
-10 -22 0
-19 22 23 0
19 -23 0
-22 -23 0
-12 -23 24 0
12 -24 0
23 -24 0
-24 0
